p cnf 136 469
4 -2 0
4 3 0
2 -3 -4 0
-1 -4 -5 0
1 4 -5 0
-1 4 5 0
1 -4 5 0
-8 -6 0
-8 7 0
6 -7 8 0
9 5 0
9 -8 0
-5 8 -9 0
-2 1 -10 0
2 -1 -10 0
-2 -1 10 0
2 1 10 0
10 11 -12 0
-10 -11 -12 0
10 -11 12 0
-10 11 12 0
-13 -12 0
-13 5 0
12 -5 13 0
15 14 0
15 -12 0
-14 12 -15 0
-16 -13 0
-16 15 0
13 -15 16 0
-16 11 -17 0
16 -11 -17 0
-16 -11 17 0
16 11 17 0
9 -17 -18 0
-9 17 -18 0
9 17 18 0
-9 -17 18 0
-7 -10 -19 0
7 10 -19 0
-7 10 19 0
7 -10 19 0
-20 -12 0
-20 19 0
12 -19 20 0
21 18 0
21 -20 0
-18 20 -21 0
-23 -22 0
-23 11 0
22 -11 23 0
23 16 -24 0
-23 -16 -24 0
23 -16 24 0
-23 16 24 0
25 3 0
25 -24 0
-3 24 -25 0
-26 10 0
-26 8 0
-10 -8 26 0
-26 -16 -27 0
26 16 -27 0
-26 16 27 0
26 -16 27 0
28 25 0
28 27 0
-25 -27 -28 0
-7 6 -29 0
7 -6 -29 0
-7 -6 29 0
7 6 29 0
-29 -8 -30 0
29 8 -30 0
-29 8 30 0
29 -8 30 0
31 10 0
31 30 0
-10 -30 -31 0
-32 29 0
-32 -22 0
-29 22 32 0
-33 -31 0
-33 -32 0
31 32 33 0
22 13 -34 0
-22 -13 -34 0
22 -13 34 0
-22 13 34 0
-35 -33 0
-35 34 0
33 -34 35 0
36 -28 0
36 35 0
28 -35 -36 0
21 36 -37 0
-21 -36 -37 0
21 -36 37 0
-21 36 37 0
40 38 0
40 39 0
-38 -39 -40 0
-42 -41 0
-42 -29 0
41 29 42 0
42 -22 -43 0
-42 22 -43 0
42 22 43 0
-42 -22 43 0
45 -11 0
45 44 0
11 -44 -45 0
47 45 0
47 46 0
-45 -46 -47 0
48 -43 0
48 -47 0
43 47 -48 0
49 3 0
49 -41 0
-3 41 -49 0
-50 19 0
-50 -38 0
-19 38 50 0
-51 -49 0
-51 50 0
49 -50 51 0
-53 52 0
-53 19 0
-52 -19 53 0
-54 51 0
-54 -53 0
-51 53 54 0
-54 -3 -55 0
54 3 -55 0
-54 3 55 0
54 -3 55 0
48 55 -56 0
-48 -55 -56 0
48 -55 56 0
-48 55 56 0
-57 46 0
-57 -41 0
-46 41 57 0
-52 -57 -58 0
52 57 -58 0
-52 57 58 0
52 -57 58 0
-22 -44 -59 0
22 44 -59 0
-22 44 59 0
22 -44 59 0
60 59 0
60 -49 0
-59 49 -60 0
-61 58 0
-61 -60 0
-58 60 61 0
62 -30 0
62 -61 0
30 61 -62 0
-63 1 0
-63 -22 0
-1 22 63 0
-64 19 0
-64 8 0
-19 -8 64 0
-65 -63 0
-65 -64 0
63 64 65 0
62 -65 -66 0
-62 65 -66 0
62 65 66 0
-62 -65 66 0
56 -66 -67 0
-56 66 -67 0
56 66 67 0
-56 -66 67 0
-68 -22 0
-68 60 0
22 -60 68 0
70 38 0
70 -69 0
-38 69 -70 0
-58 70 -71 0
58 -70 -71 0
-58 -70 71 0
58 70 71 0
72 71 0
72 -3 0
-71 3 -72 0
68 72 -73 0
-68 -72 -73 0
68 -72 73 0
-68 72 73 0
-74 -67 0
-74 -73 0
67 73 74 0
15 -31 -75 0
-15 31 -75 0
15 31 75 0
-15 -31 75 0
76 53 0
76 75 0
-53 -75 -76 0
-77 76 0
-77 -12 0
-76 12 77 0
74 -77 -78 0
-74 77 -78 0
74 77 78 0
-74 -77 78 0
-79 75 0
-79 58 0
-75 -58 79 0
79 -12 -80 0
-79 12 -80 0
79 12 80 0
-79 -12 80 0
-78 80 -81 0
78 -80 -81 0
-78 -80 81 0
78 80 81 0
82 40 0
82 -81 0
-40 81 -82 0
83 -44 -84 0
-83 44 -84 0
83 44 84 0
-83 -44 84 0
85 84 0
85 -38 0
-84 38 -85 0
-86 -60 0
-86 -14 0
60 14 86 0
87 -5 0
87 86 0
5 -86 -87 0
-88 -85 0
-88 87 0
85 -87 88 0
89 -82 0
89 88 0
82 -88 -89 0
-90 22 0
-90 -15 0
-22 15 90 0
-91 -11 0
-91 -5 0
11 5 91 0
91 38 -92 0
-91 -38 -92 0
91 -38 92 0
-91 38 92 0
-93 90 0
-93 92 0
-90 -92 93 0
31 -53 -94 0
-31 53 -94 0
31 53 94 0
-31 -53 94 0
93 94 -95 0
-93 -94 -95 0
93 -94 95 0
-93 94 95 0
-96 69 0
-96 10 0
-69 -10 96 0
97 -96 0
97 -15 0
96 15 -97 0
97 -41 -98 0
-97 41 -98 0
97 41 98 0
-97 -41 98 0
95 -98 -99 0
-95 98 -99 0
95 98 99 0
-95 -98 99 0
45 4 -100 0
-45 -4 -100 0
45 -4 100 0
-45 4 100 0
-101 99 0
-101 100 0
-99 -100 101 0
23 10 -102 0
-23 -10 -102 0
23 -10 102 0
-23 10 102 0
101 102 -103 0
-101 -102 -103 0
101 -102 103 0
-101 102 103 0
104 89 0
104 -103 0
-89 103 -104 0
-70 -76 -105 0
70 76 -105 0
-70 76 105 0
70 -76 105 0
106 5 0
106 19 0
-5 -19 -106 0
-52 -22 -107 0
52 22 -107 0
-52 22 107 0
52 -22 107 0
41 -107 -108 0
-41 107 -108 0
41 107 108 0
-41 -107 108 0
109 -17 0
109 -108 0
17 108 -109 0
-22 4 -110 0
22 -4 -110 0
-22 -4 110 0
22 4 110 0
111 16 0
111 -110 0
-16 110 -111 0
109 111 -112 0
-109 -111 -112 0
109 -111 112 0
-109 111 112 0
106 -112 -113 0
-106 112 -113 0
106 112 113 0
-106 -112 113 0
114 -83 0
114 58 0
83 -58 -114 0
-115 -59 0
-115 114 0
59 -114 115 0
-116 113 0
-116 -115 0
-113 115 116 0
-117 -105 0
-117 -116 0
105 116 117 0
-104 117 -118 0
104 -117 -118 0
-104 -117 118 0
104 117 118 0
119 -37 0
119 -118 0
37 118 -119 0
-120 -24 0
-120 23 0
24 -23 120 0
120 -53 -121 0
-120 53 -121 0
120 53 121 0
-120 -53 121 0
-122 -2 0
-122 -59 0
2 59 122 0
-121 -122 -123 0
121 122 -123 0
-121 122 123 0
121 -122 123 0
-124 53 0
-124 -22 0
-53 22 124 0
84 -60 -125 0
-84 60 -125 0
84 60 125 0
-84 -60 125 0
126 125 0
126 -69 0
-125 69 -126 0
124 126 -127 0
-124 -126 -127 0
124 -126 127 0
-124 126 127 0
-128 123 0
-128 127 0
-123 -127 128 0
75 -96 -129 0
-75 96 -129 0
75 96 129 0
-75 -96 129 0
-130 128 0
-130 129 0
-128 -129 130 0
-131 -5 0
-131 -110 0
5 110 131 0
-132 131 0
-132 -69 0
-131 69 132 0
133 -53 0
133 14 0
53 -14 -133 0
-134 132 0
-134 133 0
-132 -133 134 0
-130 134 -135 0
130 -134 -135 0
-130 -134 135 0
130 134 135 0
-136 119 0
-136 135 0
-119 -135 136 0
21 63 0
53 61 -17 -85 8 -19 0
-106 81 0
-96 -85 90 2 123 -79 0
-22 12 40 0
43 -105 132 -133 -9 0
-50 -130 96 -128 34 -14 0
102 -121 59 53 0
-93 -66 40 -82 115 -63 0
-79 114 -55 -4 0
110 -95 -104 -59 -125 -29 0
108 -77 28 0
-92 115 -34 -85 -11 110 0
-136 101 -89 28 -106 0
119 -135 61 22 0
67 -64 38 19 0
91 75 0
35 -87 -29 2 37 -60 0
-80 134 132 92 0
125 41 0
-53 39 -95 -135 0
34 -109 57 40 0
50 -104 -40 0
104 -78 108 0
-132 -67 0
107 20 72 0
91 -129 134 81 0
-29 -43 -20 0
112 27 -77 0
129 63 113 0
-125 99 -107 -34 -11 0
-69 -7 104 -85 0
54 -68 79 -110 0
-122 -99 -103 -133 0
41 79 -99 111 0
23 29 -42 10 91 -110 0
-80 132 7 0
-101 -36 29 13 132 0
-102 77 16 -26 0
48 -122 0
62 -8 103 92 46 -134 0
64 4 84 30 0
-103 6 -14 0
-69 76 58 134 -113 0
-98 84 5 -94 0
-8 29 -26 0
-70 -73 48 131 0
43 21 -3 0
62 -99 133 -114 59 0
128 82 -11 39 0
24 -99 112 -46 0
-56 34 51 -93 0
54 -65 0
-83 109 10 -15 94 0
29 14 19 24 0
-65 -132 -46 89 -80 0
127 -116 0
-128 110 109 -11 0
-123 136 -57 0
-123 37 128 -52 51 44 0
107 128 38 0
136 0
